\ Model Master
\ LP format - for model browsing. Use MPS format to capture full model detail.
Maximize
  1.045 y + z
Subject To
 R0: y <= 1000
 R1: 1.1 y + z <= 1100
 R2: z <= 1055
 R3: 1.01 y + z <= 1055
 R4: 1.06 y + z <= 1070
 R5: 1.03 y + z <= 1058
 R6: 1.05 y + z <= 1065
 R7: 1.04 y + z <= 1061
Bounds
 z free
Generals
 y
End
